n = 10;
m = 5;

G =
  [
    [ 0.0 0.0 0.69 0.02 0.0 0.0 0.0 0.0 0.0 0.0 ]
    [ 0.0 0.0 0.78 0.0 0.0 0.0 0.0 0.43 0.59 0.0 ]
    [ 0.69 0.78 0.0 0.0 0.0 0.0 0.01 0.67 0.0 0.52 ]
    [ 0.02 0.0 0.0 0.0 0.0 0.0 0.0 0.0 0.0 0.7 ]
    [ 0.0 0.0 0.0 0.0 0.0 0.0 0.0 0.0 0.0 0.0 ]
    [ 0.0 0.0 0.0 0.0 0.0 0.0 0.75 0.0 0.0 0.0 ]
    [ 0.0 0.0 0.01 0.0 0.0 0.75 0.0 0.0 0.17 0.3 ]
    [ 0.0 0.43 0.67 0.0 0.0 0.0 0.0 0.0 0.65 0.76 ]
    [ 0.0 0.59 0.0 0.0 0.0 0.0 0.17 0.65 0.0 0.0 ]
    [ 0.0 0.0 0.52 0.7 0.0 0.0 0.3 0.76 0.0 0.0 ]
  ];

H =
  [
    [ 0.0 0.0 0.21 0.0 0.52 ]
    [ 0.0 0.0 0.09 0.0 0.0 ]
    [ 0.21 0.09 0.0 0.19 0.99 ]
    [ 0.0 0.0 0.19 0.0 0.0 ]
    [ 0.52 0.0 0.99 0.0 0.0 ]
  ];